NumSesiones = 204; 

NameSesion = [  
	"ADMON. SISTEMAS DE INFORMACIÓN", 		%1
	"ADMON. SISTEMAS DE INFORMACIÓN", 		%2
	"AUDITORÍA DE SISTEMAS", 		%3
	"AUDITORÍA DE SISTEMAS", 		%4
	"CONSTITUCIÓN POLITICA", 		%5
	"CONSTITUCIÓN POLITICA", 		%6
	"CONSTITUCIÓN POLITICA", 		%7
	"PLANEACIÓN ESTRATEGICA DE SISTEMAS", 		%8
	"PLANEACIÓN ESTRATEGICA DE SISTEMAS", 		%9
	"PLANEACIÓN ESTRATEGICA DE SISTEMAS", 		%10
	"PLANEACIÓN ESTRATEGICA DE SISTEMAS", 		%11
	"GERENCIA DE PROYECTOS", 		%12
	"GERENCIA DE PROYECTOS", 		%13
	"GERENCIA DE PROYECTOS", 		%14
	"GERENCIA DE PROYECTOS", 		%15
	"PROYECTO DE GRADO II", 		%16
	"PROYECTO DE GRADO II", 		%17
	"EMPRENDIMIENTO", 		%18
	"EMPRENDIMIENTO", 		%19
	"PROGRAMACIÓN I", 		%20
	"PROGRAMACIÓN I", 		%21
	"PROGRAMACIÓN I", 		%22
	"PROGRAMACIÓN I", 		%23
	"PROGRAMACIÓN I", 		%24
	"PROGRAMACIÓN I", 		%25
	"PROGRAMACIÓN I", 		%26
	"PROGRAMACIÓN I", 		%27
	"PROGRAMACIÓN I", 		%28
	"PROGRAMACIÓN I", 		%29
	"PROGRAMACIÓN I", 		%30
	"PROGRAMACIÓN I", 		%31
	"PROGRAMACIÓN I", 		%32
	"PROGRAMACIÓN I", 		%33
	"PROGRAMACIÓN I", 		%34
	"INFORMÁTICA I", 		%35
	"INFORMÁTICA I", 		%36
	"INFORMÁTICA I", 		%37
	"INFORMÁTICA I", 		%38
	"DESARROLLO DEL PENSAMIENTO LÓGICO", 		%39
	"DESARROLLO DEL PENSAMIENTO LÓGICO", 		%40
	"DESARROLLO DEL PENSAMIENTO LÓGICO", 		%41
	"DESARROLLO DEL PENSAMIENTO LÓGICO", 		%42
	"DESARROLLO DEL PENSAMIENTO LÓGICO", 		%43
	"DESARROLLO DEL PENSAMIENTO LÓGICO", 		%44
	"TECNICAS DE LA COMUNICACIÓN", 		%45
	"TECNICAS DE LA COMUNICACIÓN", 		%46
	"TECNICAS DE LA COMUNICACIÓN", 		%47
	"INTRODUCCIÓN A LA INFORMATICA", 		%48
	"INTRODUCCIÓN A LA INFORMATICA", 		%49
	"INTRODUCCIÓN A LA INFORMATICA", 		%50
	"INTRODUCCIÓN A LA INFORMATICA", 		%51
	"INTRODUCCIÓN A LA INFORMATICA", 		%52
	"INTRODUCCIÓN A LA INFORMATICA", 		%53
	"INTRODUCCIÓN A LA INFORMATICA", 		%54
	"INTRODUCCIÓN A LA INFORMATICA", 		%55
	"INTRODUCCIÓN A LA INFORMATICA", 		%56
	"INTRODUCCIÓN A LA INFORMATICA", 		%57
	"PROGRAMACIÓN II", 		%58
	"PROGRAMACIÓN II", 		%59
	"PROGRAMACIÓN II", 		%60
	"PROGRAMACIÓN II", 		%61
	"PROGRAMACIÓN II", 		%62
	"PROGRAMACIÓN II", 		%63
	"PROGRAMACIÓN II", 		%64
	"PROGRAMACIÓN II", 		%65
	"PROGRAMACIÓN II", 		%66
	"ESTRUCTURA DE DATOS", 		%67
	"ESTRUCTURA DE DATOS", 		%68
	"ESTRUCTURA DE DATOS", 		%69
	"ESTRUCTURA DE DATOS", 		%70
	"ESTRUCTURA DE DATOS", 		%71
	"ESTRUCTURA DE DATOS", 		%72
	"ESTRUCTURA DE DATOS", 		%73
	"ESTRUCTURA DE DATOS", 		%74
	"ESTRUCTURA DE DATOS", 		%75
	"LÓGICA", 		%76
	"LÓGICA", 		%77
	"LÓGICA", 		%78
	"LÓGICA", 		%79
	"LÓGICA", 		%80
	"LÓGICA", 		%81
	"GRAMATICAS Y LENGUAJES FORMALES", 		%82
	"GRAMATICAS Y LENGUAJES FORMALES", 		%83
	"GRAMATICAS Y LENGUAJES FORMALES", 		%84
	"GRAMATICAS Y LENGUAJES FORMALES", 		%85
	"GRAMATICAS Y LENGUAJES FORMALES", 		%86
	"GRAMATICAS Y LENGUAJES FORMALES", 		%87
	"PROGRAMACIÓN III", 		%88
	"PROGRAMACIÓN III", 		%89
	"PROGRAMACIÓN III", 		%90
	"PROGRAMACIÓN III", 		%91
	"PROGRAMACIÓN III", 		%92
	"PROGRAMACIÓN III", 		%93
	"FUNDAMENTOS DE  ELECTRONICA", 		%94
	"FUNDAMENTOS DE  ELECTRONICA", 		%95
	"FUNDAMENTOS DE  ELECTRONICA", 		%96
	"FUNDAMENTOS DE  ELECTRONICA", 		%97
	"TEORIA DE SISTEMAS", 		%98
	"TEORIA DE SISTEMAS", 		%99
	"ADMINISTRACIÓN DE EMPRESAS", 		%100
	"ADMINISTRACIÓN DE EMPRESAS", 		%101
	"ADMINISTRACIÓN DE EMPRESAS", 		%102
	"ADMINISTRACIÓN DE EMPRESAS", 		%103
	"ESTADISTICA", 		%104
	"ESTADISTICA", 		%105
	"ESTADISTICA", 		%106
	"ESTADISTICA", 		%107
	"LABORATORIO DE ELECTRONICA", 		%108
	"LABORATORIO DE ELECTRONICA", 		%109
	"LABORATORIO DE ELECTRONICA", 		%110
	"LABORATORIO DE ELECTRONICA", 		%111
	"PROGRAMACIÓN IV", 		%112
	"PROGRAMACIÓN IV", 		%113
	"PROGRAMACIÓN IV", 		%114
	"PROGRAMACIÓN IV", 		%115
	"ARQUITECTURA DE COMPUTADORES", 		%116
	"ARQUITECTURA DE COMPUTADORES", 		%117
	"ARQUITECTURA DE COMPUTADORES", 		%118
	"ARQUITECTURA DE COMPUTADORES", 		%119
	"COMPUTACIÓN GRÁFICA", 		%120
	"COMPUTACIÓN GRÁFICA", 		%121
	"COMPUTACIÓN GRÁFICA", 		%122
	"COMPUTACIÓN GRÁFICA", 		%123
	"ELECTRONICA DIGITAL", 		%124
	"ELECTRONICA DIGITAL", 		%125
	"ELECTRONICA DIGITAL", 		%126
	"ELECTRONICA DIGITAL", 		%127
	"BASE DE DATOS I", 		%128
	"BASE DE DATOS I", 		%129
	"BASE DE DATOS I", 		%130
	"INVESTIGACIÓN DE OPERACIONES", 		%131
	"INVESTIGACIÓN DE OPERACIONES", 		%132
	"INVESTIGACIÓN DE OPERACIONES", 		%133
	"INVESTIGACIÓN DE OPERACIONES", 		%134
	"ESTADÍSTICA ESPECIAL", 		%135
	"ESTADÍSTICA ESPECIAL", 		%136
	"ESTADÍSTICA ESPECIAL", 		%137
	"ESTADÍSTICA ESPECIAL", 		%138
	"INGENIERÍA DE SOFWARE I", 		%139
	"INGENIERÍA DE SOFWARE I", 		%140
	"INGENIERÍA DE SOFWARE I", 		%141
	"COMUNICACIONES I", 		%142
	"COMUNICACIONES I", 		%143
	"COMUNICACIONES I", 		%144
	"COMUNICACIONES I", 		%145
	"SISTEMAS OPERATIVOS I", 		%146
	"SISTEMAS OPERATIVOS I", 		%147
	"SISTEMAS OPERATIVOS I", 		%148
	"COMPILADORES", 		%149
	"COMPILADORES", 		%150
	"COMPILADORES", 		%151
	"COMPILADORES", 		%152
	"LABORATORIO DE ELECTRONICA DIGITAL", 		%153
	"LABORATORIO DE ELECTRONICA DIGITAL", 		%154
	"LABORATORIO DE ELECTRONICA DIGITAL", 		%155
	"LABORATORIO DE ELECTRONICA DIGITAL", 		%156
	"INTELIGENCIA ARTIFICIAL", 		%157
	"INTELIGENCIA ARTIFICIAL", 		%158
	"INTELIGENCIA ARTIFICIAL", 		%159
	"INTELIGENCIA ARTIFICIAL", 		%160
	"COMUNICACIONES II", 		%161
	"COMUNICACIONES II", 		%162
	""LEGISLACIÓN", 		%163
	""LEGISLACIÓN", 		%164
	"COMPUTACION BLANDA", 		%165
	"COMPUTACION BLANDA", 		%166
	"COMPUTACION BLANDA", 		%167
	"COMPUTACION BLANDA", 		%168
	"LABORATORIO DE SOFTWARE", 		%169
	"LABORATORIO DE SOFTWARE", 		%170
	"LABORATORIO DE SOFTWARE", 		%171
	"LABORATORIO DE SOFTWARE", 		%172
	"LABORATORIO DE SOFTWARE", 		%173
	"LABORATORIO DE SOFTWARE", 		%174
	"INGENIERÍA DE SOFTWARE II", 		%175
	"INGENIERÍA DE SOFTWARE II", 		%176
	"INGENIERÍA DE SOFTWARE II", 		%177
	"INGENIERÍA DE SOFTWARE II", 		%178
	"INGENIERÍA DE SOFTWARE II", 		%179
	"INGENIERÍA DE SOFTWARE II", 		%180
	"SISTEMAS DISTRIBUIDOS", 		%181
	"SISTEMAS DISTRIBUIDOS", 		%182
	"SISTEMAS DISTRIBUIDOS", 		%183
	"SISTEMAS DISTRIBUIDOS", 		%184
	"COMUNICACIONES III", 		%185
	"COMUNICACIONES III", 		%186
	"ARQUITECTURA CLIENTE/ SERVIDOR", 		%187
	"ARQUITECTURA CLIENTE/ SERVIDOR", 		%188
	"ARQUITECTURA CLIENTE/ SERVIDOR", 		%189
	"ARQUITECTURA CLIENTE/ SERVIDOR", 		%190
	"ARQUITECTURA CLIENTE/ SERVIDOR", 		%191
	"ARQUITECTURA CLIENTE/ SERVIDOR", 		%192
	"ADMINISTRACIÓN DE PROYECTOS DE SOFTWARE", 		%193
	"ADMINISTRACIÓN DE PROYECTOS DE SOFTWARE", 		%194
	"ADMINISTRACIÓN DE PROYECTOS DE SOFTWARE", 		%195
	"ADMINISTRACIÓN DE PROYECTOS DE SOFTWARE", 		%196
	"PROYECTO DE GRADO I", 		%197
	"PROYECTO DE GRADO I", 		%198
	"INGENIERÍA DEL SOFTWARE III", 		%199
	"INGENIERÍA DEL SOFTWARE III", 		%200
	"INGENIERÍA DEL SOFTWARE III", 		%201
	"INGENIERÍA DEL SOFTWARE III", 		%202
	"HPC (HIGH PERFORMANCE COMPUTING) I", 		%203
	"HPC (HIGH PERFORMANCE COMPUTING) I", 		%204
];

GrupoSesion = [  
	1, 		%1
	1, 		%2
	1, 		%3
	1, 		%4
	1, 		%5
	2, 		%6
	3, 		%7
	1, 		%8
	1, 		%9
	2, 		%10
	2, 		%11
	1, 		%12
	1, 		%13
	2, 		%14
	2, 		%15
	1, 		%16
	2, 		%17
	1, 		%18
	1, 		%19
	1, 		%20
	1, 		%21
	1, 		%22
	2, 		%23
	2, 		%24
	2, 		%25
	3, 		%26
	3, 		%27
	3, 		%28
	4, 		%29
	4, 		%30
	4, 		%31
	5, 		%32
	5, 		%33
	5, 		%34
	1, 		%35
	2, 		%36
	3, 		%37
	4, 		%38
	1, 		%39
	1, 		%40
	2, 		%41
	2, 		%42
	3, 		%43
	3, 		%44
	1, 		%45
	2, 		%46
	3, 		%47
	1, 		%48
	1, 		%49
	2, 		%50
	2, 		%51
	3, 		%52
	3, 		%53
	4, 		%54
	4, 		%55
	5, 		%56
	5, 		%57
	1, 		%58
	1, 		%59
	1, 		%60
	2, 		%61
	2, 		%62
	2, 		%63
	3, 		%64
	3, 		%65
	3, 		%66
	1, 		%67
	1, 		%68
	1, 		%69
	2, 		%70
	2, 		%71
	2, 		%72
	3, 		%73
	3, 		%74
	3, 		%75
	1, 		%76
	1, 		%77
	2, 		%78
	2, 		%79
	3, 		%80
	3, 		%81
	1, 		%82
	1, 		%83
	1, 		%84
	2, 		%85
	2, 		%86
	2, 		%87
	1, 		%88
	1, 		%89
	2, 		%90
	2, 		%91
	3, 		%92
	3, 		%93
	1, 		%94
	1, 		%95
	2, 		%96
	2, 		%97
	1, 		%98
	2, 		%99
	1, 		%100
	1, 		%101
	2, 		%102
	2, 		%103
	1, 		%104
	1, 		%105
	2, 		%106
	2, 		%107
	1, 		%108
	2, 		%109
	3, 		%110
	4, 		%111
	1, 		%112
	1, 		%113
	2, 		%114
	2, 		%115
	1, 		%116
	1, 		%117
	2, 		%118
	2, 		%119
	1, 		%120
	1, 		%121
	2, 		%122
	2, 		%123
	1, 		%124
	1, 		%125
	2, 		%126
	2, 		%127
	1, 		%128
	1, 		%129
	1, 		%130
	1, 		%131
	1, 		%132
	2, 		%133
	2, 		%134
	1, 		%135
	1, 		%136
	2, 		%137
	2, 		%138
	1, 		%139
	1, 		%140
	1, 		%141
	1, 		%142
	1, 		%143
	2, 		%144
	2, 		%145
	1, 		%146
	1, 		%147
	1, 		%148
	1, 		%149
	1, 		%150
	2, 		%151
	2, 		%152
	1, 		%153
	2, 		%154
	3, 		%155
	4, 		%156
	1, 		%157
	1, 		%158
	2, 		%159
	2, 		%160
	2, 		%161
	3, 		%162
	2, 		%163
	2, 		%164
	1, 		%165
	1, 		%166
	2, 		%167
	2, 		%168
	1, 		%169
	1, 		%170
	2, 		%171
	2, 		%172
	3, 		%173
	3, 		%174
	1, 		%175
	1, 		%176
	1, 		%177
	2, 		%178
	2, 		%179
	2, 		%180
	1, 		%181
	1, 		%182
	2, 		%183
	2, 		%184
	1, 		%185
	3, 		%186
	1, 		%187
	1, 		%188
	1, 		%189
	2, 		%190
	2, 		%191
	2, 		%192
	1, 		%193
	1, 		%194
	2, 		%195
	2, 		%196
	1, 		%197
	2, 		%198
	1, 		%199
	1, 		%200
	3, 		%201
	3, 		%202
	1, 		%203
	1, 		%204
];

DuracionSesion = [  
	2, 		%1
	2, 		%2
	2, 		%3
	2, 		%4
	2, 		%5
	2, 		%6
	2, 		%7
	2, 		%8
	2, 		%9
	2, 		%10
	2, 		%11
	2, 		%12
	2, 		%13
	2, 		%14
	2, 		%15
	2, 		%16
	2, 		%17
	2, 		%18
	2, 		%19
	2, 		%20
	2, 		%21
	2, 		%22
	2, 		%23
	2, 		%24
	2, 		%25
	2, 		%26
	2, 		%27
	2, 		%28
	2, 		%29
	2, 		%30
	2, 		%31
	2, 		%32
	2, 		%33
	2, 		%34
	3, 		%35
	3, 		%36
	3, 		%37
	3, 		%38
	2, 		%39
	1, 		%40
	2, 		%41
	1, 		%42
	2, 		%43
	1, 		%44
	2, 		%45
	2, 		%46
	2, 		%47
	2, 		%48
	2, 		%49
	2, 		%50
	2, 		%51
	2, 		%52
	2, 		%53
	2, 		%54
	2, 		%55
	2, 		%56
	2, 		%57
	2, 		%58
	2, 		%59
	2, 		%60
	2, 		%61
	2, 		%62
	2, 		%63
	2, 		%64
	2, 		%65
	2, 		%66
	2, 		%67
	2, 		%68
	2, 		%69
	2, 		%70
	2, 		%71
	2, 		%72
	2, 		%73
	2, 		%74
	2, 		%75
	2, 		%76
	2, 		%77
	2, 		%78
	2, 		%79
	2, 		%80
	2, 		%81
	2, 		%82
	2, 		%83
	2, 		%84
	2, 		%85
	2, 		%86
	2, 		%87
	2, 		%88
	2, 		%89
	2, 		%90
	2, 		%91
	2, 		%92
	2, 		%93
	2, 		%94
	2, 		%95
	2, 		%96
	2, 		%97
	3, 		%98
	3, 		%99
	2, 		%100
	2, 		%101
	2, 		%102
	2, 		%103
	2, 		%104
	2, 		%105
	2, 		%106
	2, 		%107
	2, 		%108
	2, 		%109
	2, 		%110
	2, 		%111
	2, 		%112
	2, 		%113
	2, 		%114
	2, 		%115
	2, 		%116
	3, 		%117
	3, 		%118
	2, 		%119
	2, 		%120
	2, 		%121
	2, 		%122
	2, 		%123
	2, 		%124
	2, 		%125
	2, 		%126
	2, 		%127
	2, 		%128
	2, 		%129
	2, 		%130
	2, 		%131
	2, 		%132
	2, 		%133
	2, 		%134
	2, 		%135
	2, 		%136
	2, 		%137
	2, 		%138
	2, 		%139
	2, 		%140
	2, 		%141
	2, 		%142
	2, 		%143
	2, 		%144
	2, 		%145
	2, 		%146
	2, 		%147
	2, 		%148
	2, 		%149
	2, 		%150
	2, 		%151
	2, 		%152
	2, 		%153
	2, 		%154
	2, 		%155
	2, 		%156
	2, 		%157
	2, 		%158
	2, 		%159
	2, 		%160
	4, 		%161
	4, 		%162
	2, 		%163
	2, 		%164
	2, 		%165
	2, 		%166
	2, 		%167
	2, 		%168
	2, 		%169
	2, 		%170
	2, 		%171
	2, 		%172
	2, 		%173
	2, 		%174
	2, 		%175
	2, 		%176
	2, 		%177
	2, 		%178
	2, 		%179
	2, 		%180
	2, 		%181
	2, 		%182
	2, 		%183
	2, 		%184
	4, 		%185
	4, 		%186
	2, 		%187
	2, 		%188
	2, 		%189
	2, 		%190
	2, 		%191
	2, 		%192
	2, 		%193
	2, 		%194
	2, 		%195
	2, 		%196
	2, 		%197
	2, 		%198
	2, 		%199
	2, 		%200
	2, 		%201
	2, 		%202
	2, 		%203
	2, 		%204
];

ProSesion = [  
	"9fc508578929de24bbbae1479c54e89b", 		%1
	"9fc508578929de24bbbae1479c54e89b", 		%2
	"a506119344ce73b17cb8b0af88a8639f", 		%3
	"a506119344ce73b17cb8b0af88a8639f", 		%4
	"16e6d425f6d7266dddd9dc7dd71821ca", 		%5
	"16e6d425f6d7266dddd9dc7dd71821ca", 		%6
	"697f66a554e5e0a6ec0ac72afb6d41f8", 		%7
	"a234d4ee2723ef3b7884fcbf8bdea82d", 		%8
	"a234d4ee2723ef3b7884fcbf8bdea82d", 		%9
	"a506119344ce73b17cb8b0af88a8639f", 		%10
	"a506119344ce73b17cb8b0af88a8639f", 		%11
	"f5db5967b1cffb3baab7b52e51e74bf3", 		%12
	"f5db5967b1cffb3baab7b52e51e74bf3", 		%13
	"a234d4ee2723ef3b7884fcbf8bdea82d", 		%14
	"a234d4ee2723ef3b7884fcbf8bdea82d", 		%15
	"a506119344ce73b17cb8b0af88a8639f", 		%16
	"9346ce7cdb506236bd63a157e0791dd5", 		%17
	"f5db5967b1cffb3baab7b52e51e74bf3", 		%18
	"f5db5967b1cffb3baab7b52e51e74bf3", 		%19
	"b1e2b7a4d4e2e6dd3874ad4f46185d30", 		%20
	"b1e2b7a4d4e2e6dd3874ad4f46185d30", 		%21
	"b1e2b7a4d4e2e6dd3874ad4f46185d30", 		%22
	"326c27bec03a37af8f06c90187ea15b0", 		%23
	"326c27bec03a37af8f06c90187ea15b0", 		%24
	"326c27bec03a37af8f06c90187ea15b0", 		%25
	"ac50dbaa8305084453d5d9ab7526af51", 		%26
	"ac50dbaa8305084453d5d9ab7526af51", 		%27
	"ac50dbaa8305084453d5d9ab7526af51", 		%28
	"2b525139518edac9f75dd2ff44e2802b", 		%29
	"2b525139518edac9f75dd2ff44e2802b", 		%30
	"2b525139518edac9f75dd2ff44e2802b", 		%31
	"613c5a8e1f77e7a65e84997865037722", 		%32
	"613c5a8e1f77e7a65e84997865037722", 		%33
	"613c5a8e1f77e7a65e84997865037722", 		%34
	"73b19adf04e065a2dc62db49bdfd34ff", 		%35
	"1107966ccf4530a423aff4f807b2a39d", 		%36
	"6bd6f3cbdd669ea157ee68d3880f61c7", 		%37
	"0e0c08411971bf32a30259bde952f49d", 		%38
	"33f6c80e55fe87115ad7940117bd0a9b", 		%39
	"33f6c80e55fe87115ad7940117bd0a9b", 		%40
	"7ff54a3934765e55efd49265e0edf07c", 		%41
	"7ff54a3934765e55efd49265e0edf07c", 		%42
	"fb35073d0fdd8eaa7f32f6ed9d1712cf", 		%43
	"fb35073d0fdd8eaa7f32f6ed9d1712cf", 		%44
	"5bcf4622ec9032ef3b43eaddc4382ee7", 		%45
	"00509181d85c72415a1632c7e479919a", 		%46
	"cdba16fbc950f8dd934f5858a6549fd8", 		%47
	"12df37cf9bcf427940c950cf4c057fb0", 		%48
	"12df37cf9bcf427940c950cf4c057fb0", 		%49
	"ae458e09248220111528307f1c6d0085", 		%50
	"ae458e09248220111528307f1c6d0085", 		%51
	"09e1c3a32320e7ef9a0927f3a88bed29", 		%52
	"09e1c3a32320e7ef9a0927f3a88bed29", 		%53
	"0638e49b23b63fe1379f8d4f6163a5d7", 		%54
	"0638e49b23b63fe1379f8d4f6163a5d7", 		%55
	"bfff5d3b4e5edc1cd0f0938c6d1cad34", 		%56
	"bfff5d3b4e5edc1cd0f0938c6d1cad34", 		%57
	"326c27bec03a37af8f06c90187ea15b0", 		%58
	"326c27bec03a37af8f06c90187ea15b0", 		%59
	"326c27bec03a37af8f06c90187ea15b0", 		%60
	"ac50dbaa8305084453d5d9ab7526af51", 		%61
	"ac50dbaa8305084453d5d9ab7526af51", 		%62
	"ac50dbaa8305084453d5d9ab7526af51", 		%63
	"9a8351b2f9d50cebfbcc780f4e511db9", 		%64
	"9a8351b2f9d50cebfbcc780f4e511db9", 		%65
	"9a8351b2f9d50cebfbcc780f4e511db9", 		%66
	"7becc0265380333e846b8d0e5ac292e9", 		%67
	"7becc0265380333e846b8d0e5ac292e9", 		%68
	"7becc0265380333e846b8d0e5ac292e9", 		%69
	"4f0929829e173dfdb4831b083b6a2ab0", 		%70
	"4f0929829e173dfdb4831b083b6a2ab0", 		%71
	"4f0929829e173dfdb4831b083b6a2ab0", 		%72
	"09e1c3a32320e7ef9a0927f3a88bed29", 		%73
	"09e1c3a32320e7ef9a0927f3a88bed29", 		%74
	"09e1c3a32320e7ef9a0927f3a88bed29", 		%75
	"50d5420cbe798415344aac8ce68e3d5f", 		%76
	"50d5420cbe798415344aac8ce68e3d5f", 		%77
	"a6510c85005dcd3f5650e5823b1468f0", 		%78
	"a6510c85005dcd3f5650e5823b1468f0", 		%79
	"dfa81be9f68f42a95528016120b32a3d", 		%80
	"dfa81be9f68f42a95528016120b32a3d", 		%81
	"23c3dea45087bb60b3e88720d07d3265", 		%82
	"23c3dea45087bb60b3e88720d07d3265", 		%83
	"23c3dea45087bb60b3e88720d07d3265", 		%84
	"09e1c3a32320e7ef9a0927f3a88bed29", 		%85
	"09e1c3a32320e7ef9a0927f3a88bed29", 		%86
	"09e1c3a32320e7ef9a0927f3a88bed29", 		%87
	"b1e2b7a4d4e2e6dd3874ad4f46185d30", 		%88
	"b1e2b7a4d4e2e6dd3874ad4f46185d30", 		%89
	"4f0929829e173dfdb4831b083b6a2ab0", 		%90
	"4f0929829e173dfdb4831b083b6a2ab0", 		%91
	"0d0b8e03122336b9338a68d2362d3f35", 		%92
	"0d0b8e03122336b9338a68d2362d3f35", 		%93
	"be73ae59892a8f9657c81b254468a64e", 		%94
	"be73ae59892a8f9657c81b254468a64e", 		%95
	"be73ae59892a8f9657c81b254468a64e", 		%96
	"be73ae59892a8f9657c81b254468a64e", 		%97
	"63c32c5a81ce380667f2d8bbf1dd20c4", 		%98
	"50d5420cbe798415344aac8ce68e3d5f", 		%99
	"00509181d85c72415a1632c7e479919a", 		%100
	"00509181d85c72415a1632c7e479919a", 		%101
	"f5db5967b1cffb3baab7b52e51e74bf3", 		%102
	"f5db5967b1cffb3baab7b52e51e74bf3", 		%103
	"63c32c5a81ce380667f2d8bbf1dd20c4", 		%104
	"63c32c5a81ce380667f2d8bbf1dd20c4", 		%105
	"a7c0a93ad220e0e768712f1276fdeac0", 		%106
	"a7c0a93ad220e0e768712f1276fdeac0", 		%107
	"be73ae59892a8f9657c81b254468a64e", 		%108
	"be73ae59892a8f9657c81b254468a64e", 		%109
	"be73ae59892a8f9657c81b254468a64e", 		%110
	"be73ae59892a8f9657c81b254468a64e", 		%111
	"af1c54025ebc120fb9089a83a062ce1d", 		%112
	"af1c54025ebc120fb9089a83a062ce1d", 		%113
	"9c554c5ac2f3a7f656298bd6c164a0e6", 		%114
	"9c554c5ac2f3a7f656298bd6c164a0e6", 		%115
	"4d91a7dd01e7d4cb5cba366b0ef47dce", 		%116
	"4d91a7dd01e7d4cb5cba366b0ef47dce", 		%117
	"4d91a7dd01e7d4cb5cba366b0ef47dce", 		%118
	"4d91a7dd01e7d4cb5cba366b0ef47dce", 		%119
	"27826d78b7c86ec994a1fa545b1a3bd6", 		%120
	"27826d78b7c86ec994a1fa545b1a3bd6", 		%121
	"5f9e8ac75e30e39906cc243c5d986757", 		%122
	"5f9e8ac75e30e39906cc243c5d986757", 		%123
	"2edf61bae8921e5691f1522d3c90cac0", 		%124
	"2edf61bae8921e5691f1522d3c90cac0", 		%125
	"2edf61bae8921e5691f1522d3c90cac0", 		%126
	"2edf61bae8921e5691f1522d3c90cac0", 		%127
	"12df37cf9bcf427940c950cf4c057fb0", 		%128
	"12df37cf9bcf427940c950cf4c057fb0", 		%129
	"12df37cf9bcf427940c950cf4c057fb0", 		%130
	"f5db5967b1cffb3baab7b52e51e74bf3", 		%131
	"f5db5967b1cffb3baab7b52e51e74bf3", 		%132
	"63c32c5a81ce380667f2d8bbf1dd20c4", 		%133
	"63c32c5a81ce380667f2d8bbf1dd20c4", 		%134
	"a7c0a93ad220e0e768712f1276fdeac0", 		%135
	"a7c0a93ad220e0e768712f1276fdeac0", 		%136
	"00509181d85c72415a1632c7e479919a", 		%137
	"00509181d85c72415a1632c7e479919a", 		%138
	"6456a1e9c7ea660f7243ef62761201c1", 		%139
	"6456a1e9c7ea660f7243ef62761201c1", 		%140
	"6456a1e9c7ea660f7243ef62761201c1", 		%141
	"9c554c5ac2f3a7f656298bd6c164a0e6", 		%142
	"9c554c5ac2f3a7f656298bd6c164a0e6", 		%143
	"20b10bace577d69f4ee203403b55edde", 		%144
	"20b10bace577d69f4ee203403b55edde", 		%145
	"9fc508578929de24bbbae1479c54e89b", 		%146
	"9fc508578929de24bbbae1479c54e89b", 		%147
	"9fc508578929de24bbbae1479c54e89b", 		%148
	"9c554c5ac2f3a7f656298bd6c164a0e6", 		%149
	"9c554c5ac2f3a7f656298bd6c164a0e6", 		%150
	"2b525139518edac9f75dd2ff44e2802b", 		%151
	"2b525139518edac9f75dd2ff44e2802b", 		%152
	"2edf61bae8921e5691f1522d3c90cac0", 		%153
	"2edf61bae8921e5691f1522d3c90cac0", 		%154
	"2edf61bae8921e5691f1522d3c90cac0", 		%155
	"2edf61bae8921e5691f1522d3c90cac0", 		%156
	"9c554c5ac2f3a7f656298bd6c164a0e6", 		%157
	"9c554c5ac2f3a7f656298bd6c164a0e6", 		%158
	"fa9f295405730c7780a21f74629f3c0a", 		%159
	"fa9f295405730c7780a21f74629f3c0a", 		%160
	"a4efb2f6a03edd8a64101f1f777e5214", 		%161
	"a4efb2f6a03edd8a64101f1f777e5214", 		%162
	"2", 		%163
	"2", 		%164
	"dfa81be9f68f42a95528016120b32a3d", 		%165
	"dfa81be9f68f42a95528016120b32a3d", 		%166
	"fa9f295405730c7780a21f74629f3c0a", 		%167
	"fa9f295405730c7780a21f74629f3c0a", 		%168
	"86584a0aab82432b490658b2e8b5d336", 		%169
	"86584a0aab82432b490658b2e8b5d336", 		%170
	"86584a0aab82432b490658b2e8b5d336", 		%171
	"86584a0aab82432b490658b2e8b5d336", 		%172
	"86584a0aab82432b490658b2e8b5d336", 		%173
	"86584a0aab82432b490658b2e8b5d336", 		%174
	"6456a1e9c7ea660f7243ef62761201c1", 		%175
	"6456a1e9c7ea660f7243ef62761201c1", 		%176
	"6456a1e9c7ea660f7243ef62761201c1", 		%177
	"af1c54025ebc120fb9089a83a062ce1d", 		%178
	"af1c54025ebc120fb9089a83a062ce1d", 		%179
	"af1c54025ebc120fb9089a83a062ce1d", 		%180
	"2b525139518edac9f75dd2ff44e2802b", 		%181
	"2b525139518edac9f75dd2ff44e2802b", 		%182
	"20b10bace577d69f4ee203403b55edde", 		%183
	"20b10bace577d69f4ee203403b55edde", 		%184
	"a4efb2f6a03edd8a64101f1f777e5214", 		%185
	"a4efb2f6a03edd8a64101f1f777e5214", 		%186
	"5f9e8ac75e30e39906cc243c5d986757", 		%187
	"5f9e8ac75e30e39906cc243c5d986757", 		%188
	"5f9e8ac75e30e39906cc243c5d986757", 		%189
	"4f0929829e173dfdb4831b083b6a2ab0", 		%190
	"4f0929829e173dfdb4831b083b6a2ab0", 		%191
	"4f0929829e173dfdb4831b083b6a2ab0", 		%192
	"9fc508578929de24bbbae1479c54e89b", 		%193
	"9fc508578929de24bbbae1479c54e89b", 		%194
	"86584a0aab82432b490658b2e8b5d336", 		%195
	"86584a0aab82432b490658b2e8b5d336", 		%196
	"12df37cf9bcf427940c950cf4c057fb0", 		%197
	"af1c54025ebc120fb9089a83a062ce1d", 		%198
	"12df37cf9bcf427940c950cf4c057fb0", 		%199
	"12df37cf9bcf427940c950cf4c057fb0", 		%200
	"af1c54025ebc120fb9089a83a062ce1d", 		%201
	"af1c54025ebc120fb9089a83a062ce1d", 		%202
	"4d91a7dd01e7d4cb5cba366b0ef47dce", 		%203
	"4d91a7dd01e7d4cb5cba366b0ef47dce", 		%204
];



NumProfesores = 50;
SesProfesor = [ 
{ 1, 2, 146, 147, 148, 193, 194, } ,  	% 9fc508578929de24bbbae1479c54e89b
{ 3, 4, 10, 11, 16, } ,  	% a506119344ce73b17cb8b0af88a8639f
{ 5, 6, } ,  	% 16e6d425f6d7266dddd9dc7dd71821ca
{ 7, } ,  	% 697f66a554e5e0a6ec0ac72afb6d41f8
{ 8, 9, 14, 15, } ,  	% a234d4ee2723ef3b7884fcbf8bdea82d
{ 12, 13, 18, 19, 102, 103, 131, 132, } ,  	% f5db5967b1cffb3baab7b52e51e74bf3
{ 17, } ,  	% 9346ce7cdb506236bd63a157e0791dd5
{ 20, 21, 22, 88, 89, } ,  	% b1e2b7a4d4e2e6dd3874ad4f46185d30
{ 23, 24, 25, 58, 59, 60, } ,  	% 326c27bec03a37af8f06c90187ea15b0
{ 26, 27, 28, 61, 62, 63, } ,  	% ac50dbaa8305084453d5d9ab7526af51
{ 29, 30, 31, 151, 152, 181, 182, } ,  	% 2b525139518edac9f75dd2ff44e2802b
{ 32, 33, 34, } ,  	% 613c5a8e1f77e7a65e84997865037722
{ 35, } ,  	% 73b19adf04e065a2dc62db49bdfd34ff
{ 36, } ,  	% 1107966ccf4530a423aff4f807b2a39d
{ 37, } ,  	% 6bd6f3cbdd669ea157ee68d3880f61c7
{ 38, } ,  	% 0e0c08411971bf32a30259bde952f49d
{ 39, 40, } ,  	% 33f6c80e55fe87115ad7940117bd0a9b
{ 41, 42, } ,  	% 7ff54a3934765e55efd49265e0edf07c
{ 43, 44, } ,  	% fb35073d0fdd8eaa7f32f6ed9d1712cf
{ 45, } ,  	% 5bcf4622ec9032ef3b43eaddc4382ee7
{ 46, 100, 101, 137, 138, } ,  	% 00509181d85c72415a1632c7e479919a
{ 47, } ,  	% cdba16fbc950f8dd934f5858a6549fd8
{ 48, 49, 128, 129, 130, 197, 199, 200, } ,  	% 12df37cf9bcf427940c950cf4c057fb0
{ 50, 51, } ,  	% ae458e09248220111528307f1c6d0085
{ 52, 53, 73, 74, 75, 85, 86, 87, } ,  	% 09e1c3a32320e7ef9a0927f3a88bed29
{ 54, 55, } ,  	% 0638e49b23b63fe1379f8d4f6163a5d7
{ 56, 57, } ,  	% bfff5d3b4e5edc1cd0f0938c6d1cad34
{ 64, 65, 66, } ,  	% 9a8351b2f9d50cebfbcc780f4e511db9
{ 67, 68, 69, } ,  	% 7becc0265380333e846b8d0e5ac292e9
{ 70, 71, 72, 90, 91, 190, 191, 192, } ,  	% 4f0929829e173dfdb4831b083b6a2ab0
{ 76, 77, 99, } ,  	% 50d5420cbe798415344aac8ce68e3d5f
{ 78, 79, } ,  	% a6510c85005dcd3f5650e5823b1468f0
{ 80, 81, 165, 166, } ,  	% dfa81be9f68f42a95528016120b32a3d
{ 82, 83, 84, } ,  	% 23c3dea45087bb60b3e88720d07d3265
{ 92, 93, } ,  	% 0d0b8e03122336b9338a68d2362d3f35
{ 94, 95, 96, 97, 108, 109, 110, 111, } ,  	% be73ae59892a8f9657c81b254468a64e
{ 98, 104, 105, 133, 134, } ,  	% 63c32c5a81ce380667f2d8bbf1dd20c4
{ 106, 107, 135, 136, } ,  	% a7c0a93ad220e0e768712f1276fdeac0
{ 112, 113, 178, 179, 180, 198, 201, 202, } ,  	% af1c54025ebc120fb9089a83a062ce1d
{ 114, 115, 142, 143, 149, 150, 157, 158, } ,  	% 9c554c5ac2f3a7f656298bd6c164a0e6
{ 116, 117, 118, 119, 203, 204, } ,  	% 4d91a7dd01e7d4cb5cba366b0ef47dce
{ 120, 121, } ,  	% 27826d78b7c86ec994a1fa545b1a3bd6
{ 122, 123, 187, 188, 189, } ,  	% 5f9e8ac75e30e39906cc243c5d986757
{ 124, 125, 126, 127, 153, 154, 155, 156, } ,  	% 2edf61bae8921e5691f1522d3c90cac0
{ 139, 140, 141, 175, 176, 177, } ,  	% 6456a1e9c7ea660f7243ef62761201c1
{ 144, 145, 183, 184, } ,  	% 20b10bace577d69f4ee203403b55edde
{ 159, 160, 167, 168, } ,  	% fa9f295405730c7780a21f74629f3c0a
{ 161, 162, 185, 186, } ,  	% a4efb2f6a03edd8a64101f1f777e5214
{ 163, 164, } ,  	% 2
{ 169, 170, 171, 172, 173, 174, 195, 196, } ,  	% 86584a0aab82432b490658b2e8b5d336
];
